p tw 51 57
1 2
2 13
3 43
4 5
5 6
6 7
7 8
8 9
9 10
10 11
10 43
11 12
12 14
13 24
13 46
14 15
15 16
15 39
16 17
17 18
17 25
18 19
19 20
20 21
20 32
21 22
22 23
23 32
24 35
25 26
26 27
27 28
28 29
29 30
29 32
30 31
31 32
32 33
33 34
34 36
35 43
36 37
37 38
38 43
39 40
40 41
41 42
42 9
43 44
44 45
45 47
46 48
48 49
49 50
50 51
50 4
51 3
